30076.67,43.43,47.83
31013.65,42.12,46.38
31041.81,42.08,46.34
29136.18,44.83,49.37
30008.7,43.53,47.93
29919.18,43.66,48.08
31138.54,41.95,46.2
33235.1,39.3,43.28
30039.68,43.48,47.89
27905.41,46.81,51.55
28270.82,46.2,50.88
27838.66,46.92,51.67
28084.67,46.51,51.22
35354.79,36.95,40.69
27956.7,46.72,51.45
28237.4,46.26,50.94
29875.9,43.72,48.15
34218.55,38.17,42.04
29923.18,43.65,48.07
28435.68,45.93,50.59
